language Essence 1.3
letting nnodes be 10
letting nrings be 6
letting capacity be 5
letting demand be {{1, 4},
{1, 7},
{1, 9},
{2, 3},
{2, 8},
{2, 10},
{3, 6},
{3, 7},
{3, 9},
{4, 9},
{5, 6},
{5, 7},
{6, 8},
{6, 9},
{8, 9}}
